WARNING: for repeatability, setting FPU to use double precision
============================[ Problem Statistics ]=============================
|                                                                             |
|  Number of variables:            50                                         |
|  Number of clauses:             218                                         |
|  Parse time:                   0.00 s                                       |
|                                                                             |
============================[ Search Statistics ]==============================
| Conflicts |          ORIGINAL         |          LEARNT          | Progress |
|           |    Vars  Clauses Literals |    Limit  Clauses Lit/Cl |          |
===============================================================================
===============================================================================
restarts              : 1
conflicts             : 9              (6662 /sec)
decisions             : 21             (0.00 % random) (15544 /sec)
propagations          : 120            (88823 /sec)
conflict literals     : 43             (6.52 % deleted)
Memory used           : 20.00 MB
CPU time              : 0.001351 s

SATISFIABLE
